
Gurobi 11.0.0 (linux64) logging started Thu Sep 19 18:12:41 2024

Set parameter LogFile to value "/lustre1/scratch/348/vsc34888/JointResearch/05.Models/06.Benchmarking/E.Representative_days_based_on_Line_Benefits_OptModel/IEEE118_mod1_ByStages_nc150/openStarNet_IEEE118_mod1_ByStages_nc150.log"
Set parameter Method to value 2
Set parameter MIPFocus to value 1
Set parameter Presolve to value 2
Set parameter RINS to value 100
Set parameter MIPGap to value 0.01
Set parameter Threads to value 36
Set parameter TimeLimit to value 259200
Set parameter IterationLimit to value 760000000
Gurobi Optimizer version 11.0.0 build v11.0.0rc2 (linux64 - "Rocky Linux 8.9 (Green Obsidian)")

CPU model: Intel(R) Xeon(R) Gold 6240 CPU @ 2.60GHz, instruction set [SSE2|AVX|AVX2|AVX512]
Thread count: 36 physical cores, 36 logical processors, using up to 36 threads

Optimize a model with 213153 rows, 157539 columns and 549084 nonzeros
Model fingerprint: 0xe395c5fd
Variable types: 157505 continuous, 34 integer (34 binary)
Coefficient statistics:
  Matrix range     [3e-04, 9e+03]
  Objective range  [1e+00, 1e+00]
  Bounds range     [1e-04, 3e+00]
  RHS range        [2e-04, 3e+00]
Presolve removed 144045 rows and 72413 columns
Presolve time: 1.01s
Presolved: 69108 rows, 85126 columns, 253023 nonzeros
Variable types: 85092 continuous, 34 integer (34 binary)
Root relaxation presolved: 69108 rows, 85126 columns, 253023 nonzeros

Root barrier log...

Ordering time: 0.03s

Barrier statistics:
 Dense cols : 34
 AA' NZ     : 3.126e+05
 Factor NZ  : 1.236e+06 (roughly 70 MB of memory)
 Factor Ops : 2.724e+07 (less than 1 second per iteration)
 Threads    : 35

                  Objective                Residual
Iter       Primal          Dual         Primal    Dual     Compl     Time
   0   8.84059581e+06 -2.90926143e+09  1.55e+01 3.00e+03  6.28e+04     2s
   1   2.12302804e+06 -1.12295062e+09  3.44e+00 5.87e-08  1.30e+04     2s
   2   5.47060588e+05 -3.12929650e+08  6.21e-01 5.93e-08  2.35e+03     2s
   3   2.81919095e+05 -8.62323185e+07  1.03e-01 1.42e-08  4.92e+02     2s
   4   2.09886860e+05 -1.21376194e+07  1.16e-02 2.11e-09  6.22e+01     2s
   5   1.59249425e+05 -5.82650781e+06  5.11e-03 9.81e-10  2.97e+01     2s
   6   1.01065444e+05 -2.94939991e+06  1.96e-03 4.57e-10  1.50e+01     2s
   7   6.72078646e+04 -7.87199135e+05  9.99e-04 1.13e-10  4.20e+00     2s
   8   3.92617473e+04 -2.90530054e+05  3.80e-04 3.90e-11  1.62e+00     2s
   9   2.10193551e+04 -1.51010837e+05  1.64e-04 2.02e-11  8.43e-01     2s
  10   1.01873145e+04 -3.62655775e+04  5.67e-05 1.46e-11  2.28e-01     2s
  11   6.86563883e+03 -1.35945005e+04  3.34e-05 1.46e-11  1.00e-01     2s
  12   4.19302549e+03 -9.81456730e+03  1.70e-05 7.28e-12  6.86e-02     2s
  13   3.39060195e+03 -4.47746624e+03  1.22e-05 1.46e-11  3.85e-02     2s
  14   2.95803755e+03 -1.79587582e+03  9.81e-06 7.28e-12  2.33e-02     2s
  15   2.20397372e+03 -6.61130958e+02  5.77e-06 1.46e-11  1.40e-02     2s
  16   1.66541959e+03  1.23607045e+02  3.02e-06 7.28e-12  7.55e-03     2s
  17   1.41185390e+03  5.13674046e+02  1.81e-06 7.28e-12  4.40e-03     2s
  18   1.31624281e+03  6.95808368e+02  1.37e-06 7.28e-12  3.04e-03     2s
  19   1.23329677e+03  7.68619817e+02  1.00e-06 1.46e-11  2.28e-03     2s
  20   1.19256880e+03  8.21755539e+02  8.25e-07 7.28e-12  1.82e-03     2s
  21   1.17094297e+03  8.45515325e+02  7.30e-07 7.28e-12  1.59e-03     2s
  22   1.11500483e+03  8.84039021e+02  4.96e-07 7.28e-12  1.13e-03     2s
  23   1.09009519e+03  9.36623663e+02  3.90e-07 7.28e-12  7.52e-04     2s
  24   1.05722968e+03  9.48131547e+02  2.60e-07 7.28e-12  5.34e-04     2s
  25   1.03922043e+03  9.61055468e+02  1.91e-07 7.28e-12  3.83e-04     2s
  26   1.01943525e+03  9.74942189e+02  1.13e-07 7.28e-12  2.18e-04     2s
  27   1.01027433e+03  9.81258094e+02  7.31e-08 7.28e-12  1.42e-04     3s
  28   1.00835616e+03  9.82825421e+02  6.48e-08 7.28e-12  1.25e-04     3s
  29   1.00217098e+03  9.85955932e+02  3.84e-08 7.28e-12  7.94e-05     3s
  30   1.00056671e+03  9.87313113e+02  3.16e-08 7.28e-12  6.49e-05     3s
  31   9.98103226e+02  9.89068836e+02  2.15e-08 7.28e-12  4.42e-05     3s
  32   9.94794629e+02  9.90454345e+02  7.46e-09 7.28e-12  2.13e-05     3s
  33   9.93794562e+02  9.91591061e+02  3.46e-09 7.28e-12  1.08e-05     3s
  34   9.93316525e+02  9.92180472e+02  1.59e-09 7.28e-12  5.56e-06     3s
  35   9.93106364e+02  9.92584749e+02  7.89e-10 1.46e-11  2.55e-06     3s
  36   9.92939881e+02  9.92821841e+02  9.17e-10 7.28e-12  5.78e-07     3s
  37   9.92901817e+02  9.92865986e+02  2.03e-09 7.28e-12  1.75e-07     3s
  38   9.92891866e+02  9.92882945e+02  6.76e-10 7.28e-12  4.37e-08     3s
  39   9.92887189e+02  9.92886405e+02  5.36e-10 1.46e-11  3.84e-09     3s
  40   9.92886888e+02  9.92886842e+02  7.45e-11 1.46e-11  2.28e-10     3s
  41   9.92886873e+02  9.92886868e+02  9.26e-10 7.28e-12  2.31e-11     3s

Barrier solved model in 41 iterations and 2.97 seconds (2.98 work units)
Optimal objective 9.92886873e+02


Root relaxation: objective 9.928869e+02, 6124 iterations, 2.68 seconds (2.08 work units)

    Nodes    |    Current Node    |     Objective Bounds      |     Work
 Expl Unexpl |  Obj  Depth IntInf | Incumbent    BestBd   Gap | It/Node Time

     0     0  992.88687    0   22          -  992.88687      -     -    4s
H    0     0                    8200.0836449  992.88687  87.9%     -    9s
H    0     0                    3600.8060258  992.88687  72.4%     -   18s
     0     0 1007.52598    0   21 3600.80603 1007.52598  72.0%     -   26s
H    0     0                    3440.7427544 1007.52598  70.7%     -   31s
     0     0 1008.57808    0   19 3440.74275 1008.57808  70.7%     -   34s
     0     0 1008.64916    0   19 3440.74275 1008.64916  70.7%     -   35s
     0     0 1010.44232    0   19 3440.74275 1010.44232  70.6%     -   38s
H    0     0                    3070.0546788 1010.44232  67.1%     -   45s
     0     0 1010.44601    0   19 3070.05468 1010.44601  67.1%     -   45s
     0     0 1010.44601    0   19 3070.05468 1010.44601  67.1%     -   45s
     0     0 1010.85223    0   19 3070.05468 1010.85223  67.1%     -   47s
     0     0 1010.86692    0   19 3070.05468 1010.86692  67.1%     -   48s
     0     0 1010.86698    0   19 3070.05468 1010.86698  67.1%     -   48s
     0     0 1010.91743    0   19 3070.05468 1010.91743  67.1%     -   49s
     0     0 1010.91809    0   19 3070.05468 1010.91809  67.1%     -   50s
     0     0 1011.00250    0   20 3070.05468 1011.00250  67.1%     -   53s
H    0     0                    1091.2448312 1011.00250  7.35%     -  664s
     0     2 1011.00250    0   20 1091.24483 1011.00250  7.35%     -  667s
     1     4 1036.67308    1   18 1091.24483 1011.00421  7.35%  6837  677s
     3     6     cutoff    2      1091.24483 1028.33219  5.77%  5799  688s
     7     8 1038.17715    3   17 1091.24483 1034.91273  5.16%  4173  714s
    13    10 1051.00998    4   18 1091.24483 1038.31769  4.85%  5010  749s
    21    10 1052.64287    5   17 1091.24483 1044.65620  4.27%  5312  808s
    31    18     cutoff    6      1091.24483 1052.58332  3.54%  8742  826s
    41    20 1062.95788    7   14 1091.24483 1053.93748  3.42%  7296  851s
    59    32 1065.49463    8   13 1091.24483 1057.08042  3.13%  6113  870s
    79    38     cutoff    9      1091.24483 1059.36394  2.92%  5485  899s
   111    48 1076.33902   10   11 1091.24483 1068.56480  2.08%  4937  909s
   147    50     cutoff   11      1091.24483 1073.68934  1.61%  4110  930s
   183    51 1079.92164   12    8 1091.24483 1075.04228  1.48%  3692  961s
   226    39     cutoff   13      1091.24483 1076.53611  1.35%  3383  977s
   278    27 1085.25844   14    7 1091.24483 1076.53611  1.35%  2998  990s

Cutting planes:
  Implied bound: 268
  MIR: 517
  Relax-and-lift: 16

Explored 324 nodes (904142 simplex iterations) in 990.88 seconds (1188.63 work units)
Thread count was 36 (of 36 available processors)

Solution count 5: 1091.24 3070.05 3440.74 ... 8200.08

Optimal solution found (tolerance 1.00e-02)
Best objective 1.091244831160e+03, best bound 1.080813804895e+03, gap 0.9559%

Gurobi 11.0.0 (linux64) logging started Thu Sep 19 18:29:53 2024

Set parameter LogFile to value "/lustre1/scratch/348/vsc34888/JointResearch/05.Models/06.Benchmarking/E.Representative_days_based_on_Line_Benefits_OptModel/IEEE118_mod1_ByStages_nc150/openStarNet_IEEE118_mod1_ByStages_nc150.log"
Set parameter Method to value 2
Set parameter MIPFocus to value 1
Set parameter Presolve to value 2
Set parameter RINS to value 100
Set parameter MIPGap to value 0.01
Set parameter Threads to value 36
Set parameter TimeLimit to value 259200
Set parameter IterationLimit to value 760000000
Gurobi Optimizer version 11.0.0 build v11.0.0rc2 (linux64 - "Rocky Linux 8.9 (Green Obsidian)")

CPU model: Intel(R) Xeon(R) Gold 6240 CPU @ 2.60GHz, instruction set [SSE2|AVX|AVX2|AVX512]
Thread count: 36 physical cores, 36 logical processors, using up to 36 threads

Optimize a model with 213153 rows, 157505 columns and 528650 nonzeros
Model fingerprint: 0x07094412
Coefficient statistics:
  Matrix range     [3e-04, 9e+03]
  Objective range  [1e+00, 1e+00]
  Bounds range     [1e-04, 3e+00]
  RHS range        [2e-04, 2e+02]
Presolve removed 159018 rows and 69342 columns
Presolve time: 0.31s
Presolved: 54135 rows, 88762 columns, 214991 nonzeros

Ordering time: 0.02s

Barrier statistics:
 AA' NZ     : 1.941e+05
 Factor NZ  : 7.478e+05 (roughly 60 MB of memory)
 Factor Ops : 1.143e+07 (less than 1 second per iteration)
 Threads    : 36

                  Objective                Residual
Iter       Primal          Dual         Primal    Dual     Compl     Time
   0   1.47251039e+07 -2.13138555e+09  7.80e+01 1.21e+02  4.24e+04     0s
   1   1.68160443e+06 -6.19053561e+08  7.84e+00 4.24e-12  5.60e+03     0s
   2   4.18573689e+05 -1.10686396e+08  1.24e+00 4.16e-12  8.09e+02     1s
   3   1.92209728e+05 -1.35225229e+07  4.43e-02 3.48e-12  7.43e+01     1s
   4   1.04401778e+05 -1.60512014e+06  4.13e-03 4.09e-12  8.87e+00     1s
   5   6.15206116e+04 -5.09889183e+05  1.61e-03 1.36e-12  2.95e+00     1s
   6   2.94883815e+04 -1.44927048e+05  5.22e-04 9.09e-13  9.00e-01     1s
   7   1.47120877e+04 -4.53990355e+04  2.01e-04 9.09e-13  3.10e-01     1s
   8   8.66028107e+03 -1.84020395e+04  1.04e-04 4.55e-13  1.40e-01     1s
   9   5.62975209e+03 -7.30880447e+03  6.03e-05 9.09e-13  6.67e-02     1s
  10   3.72666916e+03 -3.99879142e+03  3.39e-05 9.09e-13  3.98e-02     1s
  11   2.58856886e+03 -1.14495108e+03  1.85e-05 9.09e-13  1.92e-02     1s
  12   1.73236021e+03 -2.58443384e+02  7.40e-06 9.09e-13  1.03e-02     1s
  13   1.48719288e+03  5.82059224e+02  4.30e-06 1.82e-12  4.67e-03     1s
  14   1.32231955e+03  7.78076493e+02  2.39e-06 9.09e-13  2.81e-03     1s
  15   1.25222753e+03  9.04014779e+02  1.62e-06 9.09e-13  1.80e-03     1s
  16   1.20390425e+03  9.89501481e+02  1.10e-06 4.55e-13  1.11e-03     1s
  17   1.16721972e+03  1.03270963e+03  7.22e-07 9.09e-13  6.94e-04     1s
  18   1.12525472e+03  1.05144330e+03  3.16e-07 9.09e-13  3.81e-04     1s
  19   1.11468787e+03  1.06743777e+03  2.13e-07 4.55e-13  2.44e-04     1s
  20   1.10584348e+03  1.07717261e+03  1.31e-07 9.09e-13  1.48e-04     1s
  21   1.09950945e+03  1.08541699e+03  7.32e-08 9.09e-13  7.27e-05     1s
  22   1.09540013e+03  1.08876355e+03  3.57e-08 4.55e-13  3.42e-05     1s
  23   1.09342128e+03  1.08977469e+03  1.84e-08 9.09e-13  1.88e-05     1s
  24   1.09237944e+03  1.09049838e+03  9.44e-09 9.09e-13  9.70e-06     1s
  25   1.09170292e+03  1.09079105e+03  3.72e-09 9.09e-13  4.70e-06     1s
  26   1.09142934e+03  1.09104094e+03  1.46e-09 9.09e-13  2.00e-06     1s
  27   1.09129585e+03  1.09120529e+03  3.72e-10 9.09e-13  4.67e-07     1s
  28   1.09126490e+03  1.09123410e+03  3.87e-10 9.09e-13  1.59e-07     1s
  29   1.09124653e+03  1.09124435e+03  1.77e-10 9.09e-13  1.12e-08     1s
  30   1.09124491e+03  1.09124480e+03  2.00e-09 9.09e-13  5.70e-10     1s
  31   1.09124483e+03  1.09124483e+03  5.02e-09 9.09e-13  5.87e-12     1s

Barrier solved model in 31 iterations and 1.19 seconds (1.12 work units)
Optimal objective 1.09124483e+03

Crossover log...

   15335 DPushes remaining with DInf 0.0000000e+00                 1s
       0 DPushes remaining with DInf 0.0000000e+00                 1s

     565 PPushes remaining with PInf 0.0000000e+00                 1s
       0 PPushes remaining with PInf 0.0000000e+00                 2s

  Push phase complete: Pinf 0.0000000e+00, Dinf 2.4025529e-12      2s

Iteration    Objective       Primal Inf.    Dual Inf.      Time
    6377    1.0912448e+03   0.000000e+00   0.000000e+00      2s

Solved in 6377 iterations and 1.73 seconds (1.40 work units)
Optimal objective  1.091244831e+03
